; sanic :: corpus-study/repo_src/sanic/sanic/server/protocols/base_protocol.py :: EVENT 'SanicProtocol._data_received' :: structured encoding (verdict: unsat)
; Generated by snf-pipeline (encoder.py) -- run with any
; SMT-LIB2-compliant solver, e.g. `z3 sanic__corpus-study_repo_src_sanic_sanic_server_protocols_base_protocol.py__SanicProtocol._data_received__structured.smt2`
; benchmark generated from python API
(set-info :status unknown)
(declare-fun ewake_0 () Bool)
(assert
 (= ewake_0 true))
(assert
 (let (($x24 (not ewake_0)))
(or $x24)))
(check-sat)
